
Gurobi 9.1.1 (linux64, Python) logging started Thu Dec 23 15:36:05 2021

Using license file /cluster/apps/nss/gurobi/9.1.1/x86_64/gurobi.lic
Set parameter TokenServer to value lic-gurobi.ethz.ch
Set parameter LogFile to value gurobi.log
